* ENCODING=ISO-8859-1
NAME          CPLEX
ROWS
 N  obj1    
 G  c1      
 G  c2      
 G  c3      
 G  c4      
 G  c5      
 G  c6      
 G  c7      
 G  c8      
 G  c9      
 G  c10     
 G  c11     
 G  c12     
 G  c13     
 G  c14     
 G  c15     
 G  c16     
 G  c17     
 G  c18     
 G  c19     
 G  c20     
 G  c21     
 G  c22     
 G  c23     
 G  c24     
 G  c25     
 G  c26     
 G  c27     
 G  c28     
 G  c29     
 G  c30     
 G  c31     
 G  c32     
 G  c33     
 G  c34     
 G  c35     
 G  c36     
 G  c37     
 G  c38     
 G  c39     
 G  c40     
 G  c41     
 G  c42     
 G  c43     
 G  c44     
 G  c45     
 G  c46     
 G  c47     
 G  c48     
 G  c49     
 G  c50     
COLUMNS
    MARK0000  'MARKER'                 'INTORG'
    x1        obj1                            1
    x1        c4                            221
    x1        c16                           601
    x1        c20                           797
    x1        c26                           598
    x1        c37                           550
    x2        obj1                            1
    x2        c1                            347
    x3        obj1                            1
    x3        c37                           228
    x4        obj1                            1
    x4        c2                            859
    x4        c3                            442
    x4        c10                           844
    x4        c12                           315
    x4        c13                           112
    x4        c14                           620
    x4        c41                           408
    x5        obj1                            1
    x5        c20                           969
    x6        obj1                            1
    x6        c14                           865
    x6        c33                           607
    x6        c48                           756
    x7        obj1                            1
    x7        c10                           865
    x7        c13                           242
    x7        c19                           861
    x7        c21                           264
    x7        c38                           348
    x7        c40                           161
    x7        c45                           188
    x8        obj1                            1
    x8        c3                            855
    x8        c7                            758
    x8        c12                           216
    x8        c16                           228
    x8        c20                           846
    x9        obj1                            1
    x9        c6                            829
    x9        c21                           703
    x9        c34                           560
    x9        c35                           611
    x10       obj1                            1
    x10       c41                           139
    x11       obj1                            1
    x11       c26                           723
    x11       c28                           705
    x11       c32                           361
    x11       c44                           208
    x11       c46                           596
    x11       c50                           721
    x12       obj1                            1
    x12       c5                            332
    x12       c10                           655
    x12       c44                           861
    x13       obj1                            1
    x13       c1                            688
    x13       c24                           956
    x13       c28                           421
    x13       c39                           117
    x13       c41                           423
    x13       c44                           413
    x14       obj1                            1
    x14       c23                           699
    x14       c40                           915
    x15       obj1                            1
    x15       c2                            713
    x15       c7                            896
    x15       c19                           748
    x15       c36                           206
    x16       obj1                            1
    x16       c9                            236
    x16       c26                           975
    x16       c33                           688
    x17       obj1                            1
    x17       c9                            428
    x17       c23                           435
    x17       c24                           217
    x17       c27                           101
    x17       c33                           289
    x17       c38                           923
    x17       c43                           426
    x18       obj1                            1
    x18       c6                            153
    x18       c14                           310
    x18       c18                           591
    x18       c26                           734
    x19       obj1                            1
    x19       c10                           968
    x19       c19                           556
    x19       c30                           576
    x19       c32                           238
    x19       c43                           183
    x20       obj1                            1
    x20       c10                           221
    x20       c26                           166
    x20       c30                           894
    x20       c45                           550
    x20       c48                           329
    x21       obj1                            1
    x21       c4                            843
    x21       c5                            867
    x21       c12                           977
    x21       c17                           826
    x21       c18                           728
    x21       c20                           281
    x21       c22                           558
    x21       c25                           287
    x21       c34                           961
    x21       c46                           556
    x22       obj1                            1
    x22       c6                            681
    x22       c14                           669
    x22       c16                           503
    x22       c27                           740
    x22       c40                           470
    x22       c48                           722
    x22       c50                           430
    x23       obj1                            1
    x23       c7                            911
    x23       c18                           753
    x23       c21                           206
    x23       c22                           158
    x23       c38                           861
    x23       c49                           866
    x24       obj1                            1
    x24       c1                            120
    x24       c5                            177
    x24       c12                           774
    x24       c23                           447
    x24       c39                           716
    x24       c50                           546
    x25       obj1                            1
    x25       c10                           935
    x25       c21                           485
    x25       c28                           455
    x25       c30                           841
    x25       c34                           943
    x25       c43                           112
    x25       c44                           304
    x26       obj1                            1
    x26       c8                            381
    x26       c19                           517
    x26       c37                           254
    x27       obj1                            1
    x27       c1                            176
    x27       c15                           751
    x27       c29                           403
    x27       c30                           815
    x27       c47                           482
    x28       obj1                            1
    x28       c2                            132
    x28       c21                           299
    x28       c22                           512
    x28       c32                           386
    x28       c44                           767
    x29       obj1                            1
    x29       c5                            902
    x29       c17                           851
    x29       c23                           600
    x29       c32                           283
    x29       c34                           559
    x29       c38                           243
    x29       c43                           869
    x30       obj1                            1
    x30       c1                            807
    x30       c13                           776
    x30       c25                           351
    x30       c27                           709
    x30       c42                           385
    x30       c45                           596
    x31       obj1                            1
    x31       c3                            293
    x31       c20                           595
    x31       c22                           910
    x31       c43                           831
    x31       c48                           597
    x32       obj1                            1
    x32       c3                            887
    x32       c7                            342
    x32       c32                           400
    x32       c38                           741
    x32       c41                           184
    x33       obj1                            1
    x33       c3                            150
    x33       c6                            835
    x33       c15                           964
    x33       c22                           349
    x33       c39                           746
    x34       obj1                            1
    x34       c6                            558
    x34       c9                            119
    x34       c26                           261
    x34       c32                           109
    x35       obj1                            1
    x35       c2                            972
    x35       c12                           360
    x35       c17                           162
    x35       c24                           527
    x35       c29                           940
    x35       c30                           152
    x35       c35                           497
    x35       c36                           992
    x35       c41                           506
    x36       obj1                            1
    x36       c1                            205
    x36       c8                            525
    x36       c19                           326
    x36       c24                           320
    x36       c37                           214
    x36       c48                           221
    x37       obj1                            1
    x37       c3                            638
    x37       c24                           732
    x37       c33                           679
    x37       c47                           948
    x38       obj1                            1
    x38       c6                            592
    x38       c19                           776
    x38       c21                           913
    x39       obj1                            1
    x39       c1                            283
    x39       c2                            134
    x39       c14                           479
    x39       c25                           666
    x39       c33                           942
    x39       c44                           116
    x39       c45                           923
    x39       c49                           549
    x40       obj1                            1
    x40       c5                            654
    x40       c7                            105
    x40       c10                           853
    x40       c15                           705
    x40       c36                           604
    x40       c37                           250
    x40       c43                           376
    x40       c44                           438
    x41       obj1                            1
    x41       c4                            235
    x41       c11                           932
    x41       c13                           867
    x41       c18                           464
    x41       c20                           881
    x41       c27                           351
    x41       c35                           248
    x41       c49                           367
    x42       obj1                            1
    x42       c11                           181
    x42       c12                           515
    x42       c30                           136
    x42       c31                           863
    x42       c50                           318
    x43       obj1                            1
    x43       c2                            953
    x43       c8                            112
    x43       c16                           248
    x43       c31                           320
    x43       c42                           307
    x44       obj1                            1
    x44       c2                            768
    x44       c18                           224
    x44       c28                           189
    x45       obj1                            1
    x45       c17                           853
    x45       c19                           918
    x45       c27                           895
    x45       c41                           466
    x45       c42                           617
    x45       c47                           149
    x46       obj1                            1
    x46       c3                            720
    x46       c14                           441
    x46       c22                           322
    x46       c27                           570
    x46       c37                           900
    x46       c45                           634
    x46       c50                           574
    x47       obj1                            1
    x47       c12                           353
    x47       c21                           841
    x47       c41                           194
    x48       obj1                            1
    x48       c7                            686
    x48       c40                           634
    x48       c47                           435
    x49       obj1                            1
    x49       c7                            191
    x49       c40                           660
    x49       c48                           559
    x50       obj1                            1
    x50       c5                            567
    x50       c6                            336
    x50       c11                           874
    x50       c14                           554
    x50       c20                           389
    x50       c26                           645
    x50       c29                           361
    x50       c31                           648
    x50       c42                           106
    x50       c43                           189
    x50       c46                           591
    x50       c50                           190
    MARK0001  'MARKER'                 'INTEND'
RHS
    rhs       c1                           1313
    rhs       c2                           2266
    rhs       c3                           1993
    rhs       c4                            650
    rhs       c5                           1750
    rhs       c6                           1992
    rhs       c7                           1945
    rhs       c8                            509
    rhs       c9                            392
    rhs       c10                          2671
    rhs       c11                           994
    rhs       c12                          1755
    rhs       c13                           999
    rhs       c14                          1969
    rhs       c15                          1210
    rhs       c16                           790
    rhs       c17                          1346
    rhs       c18                          1380
    rhs       c19                          2351
    rhs       c20                          2379
    rhs       c21                          1856
    rhs       c22                          1405
    rhs       c23                          1091
    rhs       c24                          1376
    rhs       c25                           652
    rhs       c26                          2051
    rhs       c27                          1683
    rhs       c28                           885
    rhs       c29                           852
    rhs       c30                          1707
    rhs       c31                           916
    rhs       c32                           889
    rhs       c33                          1603
    rhs       c34                          1512
    rhs       c35                           678
    rhs       c36                           901
    rhs       c37                          1198
    rhs       c38                          1558
    rhs       c39                           790
    rhs       c40                          1420
    rhs       c41                          1160
    rhs       c42                           708
    rhs       c43                          1493
    rhs       c44                          1554
    rhs       c45                          1446
    rhs       c46                           872
    rhs       c47                          1007
    rhs       c48                          1592
    rhs       c49                           891
    rhs       c50                          1390
BOUNDS
 LI bnd       x1        0
 LI bnd       x2        0
 LI bnd       x3        0
 LI bnd       x4        0
 LI bnd       x5        0
 LI bnd       x6        0
 LI bnd       x7        0
 LI bnd       x8        0
 LI bnd       x9        0
 LI bnd       x10       0
 LI bnd       x11       0
 LI bnd       x12       0
 LI bnd       x13       0
 LI bnd       x14       0
 LI bnd       x15       0
 LI bnd       x16       0
 LI bnd       x17       0
 LI bnd       x18       0
 LI bnd       x19       0
 LI bnd       x20       0
 LI bnd       x21       0
 LI bnd       x22       0
 LI bnd       x23       0
 LI bnd       x24       0
 LI bnd       x25       0
 LI bnd       x26       0
 LI bnd       x27       0
 LI bnd       x28       0
 LI bnd       x29       0
 LI bnd       x30       0
 LI bnd       x31       0
 LI bnd       x32       0
 LI bnd       x33       0
 LI bnd       x34       0
 LI bnd       x35       0
 LI bnd       x36       0
 LI bnd       x37       0
 LI bnd       x38       0
 LI bnd       x39       0
 LI bnd       x40       0
 LI bnd       x41       0
 LI bnd       x42       0
 LI bnd       x43       0
 LI bnd       x44       0
 LI bnd       x45       0
 LI bnd       x46       0
 LI bnd       x47       0
 LI bnd       x48       0
 LI bnd       x49       0
 LI bnd       x50       0
ENDATA
